data;

set A := 292 998 954 498 112 808 438 618 580 392 266 348 108 760 98 666 558 688 18 750 950 656 196 180 926 506 64 942 60 206 126 906 654 240 282 992 412 302 864 242 508 114 404 296 908 878 502 690 548 58 986 252 468 800 710 318 632 860 490 120 260 958 844 892 470 826 562 614 364 586 716 476 178 600 818 174 638 442 588 836;
param T := 20000;

end;
